num_images = 30;
universe = 298;
images = [{1, 3, 5, 7, 9, 11, 13, 15, 17, 19, 21, 22, 24, 26, 27, 29, 31, 33, 35, 37, 39, 41, 43, 45, 47, 49, 50, 51, 52, 53, 54, 55, 56, 57, 58, 59, 60, 61, 62, 63, 64, 65, 67, 68, 69, 70, 71, 72, 73, 74, 75, 76, 77, 78, 79, 80, 81, 82, 83, 84, 85, 86, 87, 88, 89, 90, 91, 92, 93, 94, 95, 96, 97, 98, 99, 100, 101, 102, 103, 104, 105, 106, 107, 108, 109, 110, 111, 112, 113, 114, 115, 153, 154, 155, 156, 157, 158, 159, 160, 161, 162, 163, 164, 165, 166, 167, 168, 169, 170, 175, 176, 177, 178, 179, 180, 181, 182, 183, 184, 185, 186, 187, 188, 189, 190, 191, 192, 193, 194, 232, 233, 234, 235, 236, 237, 260, 261, 262, 263, 264, 265, 267, 268, 269, 270, 292, 293}, {264, 265, 165, 166, 167, 168, 169, 170, 56, 57, 58, 59, 60, 61, 62, 63, 64, 65, 66, 67, 68, 69, 70, 71, 72, 73, 74, 194, 76, 78, 80, 82, 84, 86, 88, 90, 234, 235, 236, 237, 112, 113, 114, 115}, {261, 262, 263, 264, 268, 19, 20, 163, 164, 165, 166, 167, 168, 54, 55, 56, 57, 58, 59, 73, 74, 75, 76, 77, 78, 79, 80, 81, 82, 83, 84, 85, 86, 87, 88, 89, 90, 91, 92, 94, 96, 98, 100, 102, 104, 233, 106, 234, 108, 235, 110, 236, 112, 237, 114}, {11, 12, 13, 14, 15, 16, 17, 18, 19, 20, 21, 22, 23, 24, 25, 26, 27, 28, 29, 30, 31, 32, 33, 34, 35, 36, 37, 38, 69, 70, 71, 72, 73, 74, 75, 76, 77, 78, 79, 80, 81, 82, 83, 92, 93, 94, 95, 96, 97, 116, 118, 120, 122, 124, 126, 127, 128, 130, 132, 134, 136, 138, 140, 141, 142, 144, 146, 148, 150, 153, 155, 157, 159, 161, 163, 175, 176, 177, 178, 179, 189, 190, 191, 224, 225, 226, 227, 228, 229, 230, 231, 232, 233, 251, 252, 268, 292}, {3, 4, 5, 6, 7, 8, 9, 10, 11, 12, 13, 14, 15, 16, 17, 18, 19, 20, 21, 22, 23, 24, 25, 26, 27, 28, 49, 50, 51, 52, 53, 54, 55, 56, 57, 58, 59, 60, 61, 62, 63, 64, 67, 68, 69, 70, 71, 72, 73, 74, 75, 76, 77, 78, 79, 80, 81, 82, 83, 84, 85, 86, 87, 88, 89, 90, 91, 92, 93, 94, 95, 96, 97, 98, 99, 100, 101, 102, 103, 104, 105, 106, 107, 108, 109, 110, 111, 112, 113, 114, 115, 116, 117, 118, 119, 157, 158, 159, 160, 161, 162, 163, 164, 165, 166, 167, 168, 169, 170, 171, 173, 176, 178, 180, 182, 184, 186, 188, 189, 190, 191, 192, 193, 194, 232, 233, 234, 235, 236, 237, 260, 261, 262, 263, 264, 265, 266, 267, 268, 269, 270, 292, 293}, {13, 14, 15, 16, 17, 18, 19, 20, 21, 22, 23, 52, 53, 54, 55, 56, 57, 58, 59, 60, 61, 62, 70, 71, 72, 73, 74, 75, 76, 77, 78, 79, 80, 81, 82, 83, 84, 85, 86, 87, 88, 89, 90, 91, 92, 93, 94, 95, 96, 97, 98, 99, 100, 101, 106, 107, 108, 109, 110, 111, 112, 113, 114, 115, 163, 164, 165, 166, 167, 168, 169, 170, 192, 194, 233, 234, 235, 236, 237, 261, 262, 263, 264, 265, 268, 269, 270}, {195, 197, 199, 201, 138, 139, 140, 141, 203, 205}, {1, 2, 3, 4, 5, 6, 7, 8, 9, 10, 11, 12, 13, 14, 15, 16, 17, 18, 19, 20, 21, 22, 23, 24, 25, 26, 27, 28, 29, 30, 58, 59, 60, 61, 62, 63, 64, 65, 66, 67, 68, 69, 70, 71, 72, 73, 74, 75, 76, 77, 112, 113, 114, 115, 116, 117, 118, 119, 120, 121, 122, 123, 124, 125, 126, 127, 128, 129, 130, 131, 132, 133, 134, 135, 167, 168, 169, 170, 171, 172, 173, 174, 175, 189, 194, 207, 209, 211, 213, 215, 217, 219, 220, 221, 222, 223, 225, 227, 229, 234, 236, 249, 250, 251, 264, 265, 266, 271, 276, 277}, {195, 196, 197, 198, 199, 200, 201, 202, 238, 240, 241, 243, 245, 278, 247}, {7, 8, 9, 10, 11, 12, 13, 14, 15, 16, 17, 18, 19, 20, 21, 22, 23, 24, 25, 26, 27, 28, 29, 30, 31, 32, 33, 34, 35, 36, 37, 38, 39, 40, 41, 42, 67, 68, 69, 70, 71, 72, 73, 74, 75, 76, 77, 78, 79, 80, 81, 82, 83, 84, 85, 86, 87, 88, 89, 92, 93, 94, 95, 96, 97, 98, 99, 100, 101, 102, 103, 112, 113, 114, 115, 116, 117, 118, 119, 120, 121, 122, 123, 124, 125, 146, 147, 148, 149, 150, 151, 152, 153, 154, 155, 156, 157, 158, 159, 160, 161, 162, 163, 164, 165, 166, 167, 168, 169, 170, 171, 172, 173, 174, 175, 176, 177, 178, 179, 180, 181, 182, 183, 184, 185, 189, 190, 191, 194, 227, 228, 229, 230, 231, 232, 233, 234, 235, 249, 251, 253, 254, 256, 258, 260, 261, 264, 265, 266, 268, 277, 292, 293}, {4, 5, 6, 7, 8, 9, 10, 11, 12, 13, 14, 15, 16, 17, 18, 19, 20, 21, 22, 23, 24, 25, 26, 50, 51, 52, 53, 54, 55, 56, 57, 58, 59, 60, 61, 62, 63, 67, 68, 69, 70, 71, 72, 73, 74, 75, 76, 77, 78, 79, 80, 81, 82, 83, 84, 85, 86, 87, 88, 89, 90, 91, 92, 93, 94, 95, 96, 97, 98, 99, 100, 101, 102, 103, 104, 105, 106, 107, 108, 109, 110, 111, 112, 113, 114, 115, 116, 117, 155, 156, 157, 158, 159, 160, 161, 162, 163, 164, 165, 166, 167, 168, 169, 170, 175, 176, 177, 178, 179, 180, 181, 188, 189, 190, 191, 192, 193, 194, 232, 233, 234, 235, 236, 237, 260, 261, 262, 263, 264, 265, 266, 267, 268, 269, 270, 292, 293}, {263, 269, 270, 165, 166, 167, 76, 77, 78, 79, 80, 81, 82, 83, 84, 85, 86, 87, 88, 89, 90, 91, 234, 235, 108, 109, 110, 111, 236, 237}, {272, 209, 210, 211, 212, 213, 214, 275}, {215, 122, 127, 271, 211, 276, 277, 212, 213, 214, 249, 250, 123, 124, 125, 126, 216}, {279, 280, 281, 282, 283, 284, 285, 287, 289, 291, 295, 296, 297, 298, 241, 242, 243, 244, 245, 246}, {218, 207, 208, 209, 274, 275, 210, 211, 212, 213, 214, 217, 215, 271, 272, 273, 216}, {272, 273}, {261, 262, 263, 264, 268, 163, 164, 165, 166, 167, 168, 55, 56, 57, 58, 74, 75, 76, 77, 78, 79, 80, 81, 82, 83, 84, 85, 86, 87, 88, 89, 90, 91, 233, 106, 234, 235, 236, 237}, {130, 131, 132, 133, 134, 135, 136, 137, 138, 139, 140, 141, 142, 143, 144, 145, 146, 147, 278, 195, 196, 197, 198, 199, 200, 201, 202, 203, 204, 205, 206, 221, 222, 223, 224, 238, 239, 240, 241, 242, 243, 244, 245, 246, 247, 248, 253}, {275, 276, 213, 214, 215, 216, 217, 218, 219}, {134, 135, 136, 137, 138, 139, 140, 141, 142, 143, 195, 196, 197, 198, 199, 200, 201, 202, 203, 204, 205, 206, 223}, {12, 17, 18, 19, 20, 21, 22, 23, 24, 25, 53, 54, 55, 56, 57, 58, 59, 60, 72, 73, 74, 75, 76, 77, 78, 79, 80, 81, 82, 83, 84, 85, 86, 87, 88, 89, 90, 91, 92, 93, 94, 95, 96, 97, 98, 99, 100, 101, 102, 103, 104, 105, 106, 107, 108, 109, 110, 111, 112, 113, 114, 115, 159, 160, 161, 162, 163, 164, 165, 166, 167, 168, 189, 190, 191, 232, 233, 234, 235, 236, 237, 261, 262, 263, 264, 268, 292, 293}, {256, 257, 258, 259, 266, 277, 150, 151, 152, 35, 36, 37, 38, 39, 40, 41, 42, 43, 44, 173, 174, 229, 230, 231, 116, 117, 118, 119, 120, 121, 122, 123}, {260, 261, 262, 263, 267, 269, 153, 154, 155, 156, 157, 158, 284, 160, 161, 162, 285, 286, 159, 163, 36, 37, 38, 39, 40, 41, 42, 43, 44, 45, 46, 297, 180, 181, 182, 183, 184, 185, 164, 186, 187, 188, 192, 193, 293, 295, 80, 296, 82, 83, 84, 85, 86, 87, 96, 97, 98, 99, 100, 101, 102, 103, 104, 105, 106, 107, 108, 109}, {291, 195, 196, 197, 198, 295, 296, 297, 298, 240, 241, 242, 243, 244, 278, 279, 280, 281}, {278, 279, 280, 285, 286, 287, 288, 289, 290, 291, 295, 296, 195, 196, 197, 198, 199, 200, 240, 241, 242, 243, 244, 245, 246, 247, 248}, {15, 16, 17, 18, 19, 20, 21, 51, 52, 53, 54, 55, 56, 57, 58, 59, 60, 61, 71, 72, 73, 74, 75, 76, 77, 78, 79, 80, 81, 82, 83, 84, 85, 86, 87, 88, 89, 90, 91, 92, 93, 94, 95, 96, 97, 98, 99, 100, 101, 102, 103, 104, 105, 106, 107, 108, 109, 110, 111, 112, 113, 114, 115, 161, 162, 163, 164, 165, 166, 167, 168, 169, 184, 185, 186, 187, 189, 190, 191, 192, 193, 233, 234, 235, 236, 237, 260, 261, 262, 263, 264, 265, 268, 269, 270}, {256, 257, 132, 133, 134, 135, 136, 137, 138, 139, 140, 141, 142, 143, 144, 145, 146, 147, 148, 149, 150, 151, 278, 279, 289, 290, 291, 195, 196, 197, 198, 199, 200, 201, 202, 203, 204, 205, 206, 222, 223, 224, 225, 226, 227, 228, 229, 230, 238, 239, 240, 241, 242, 243, 244, 245, 246, 247, 248, 252, 253, 254, 255}, {33, 34, 35, 36, 37, 38, 39, 40, 41, 42, 43, 44, 45, 46, 47, 48, 49, 50, 51, 52, 53, 54, 55, 56, 80, 81, 82, 83, 84, 85, 86, 87, 88, 89, 90, 91, 94, 95, 96, 97, 98, 99, 100, 101, 102, 103, 104, 105, 106, 107, 108, 109, 110, 111, 140, 141, 142, 143, 144, 145, 146, 147, 148, 149, 150, 151, 152, 153, 154, 155, 156, 157, 158, 159, 160, 161, 162, 163, 164, 165, 178, 179, 180, 181, 182, 183, 184, 185, 186, 187, 188, 191, 192, 193, 197, 198, 199, 200, 201, 202, 203, 204, 238, 239, 243, 244, 245, 246, 247, 248, 252, 253, 254, 255, 256, 257, 258, 259, 260, 261, 262, 263, 267, 268, 269, 270, 278, 283, 284, 285, 286, 287, 288, 289, 290, 291, 292, 293, 294, 295, 296, 297, 298}, {9, 10, 11, 12, 13, 14, 15, 16, 17, 18, 19, 20, 21, 22, 23, 24, 25, 26, 27, 28, 29, 30, 31, 32, 33, 34, 35, 36, 37, 38, 39, 40, 68, 69, 70, 71, 72, 73, 74, 75, 76, 77, 78, 79, 80, 81, 82, 83, 84, 85, 92, 93, 94, 95, 96, 97, 98, 99, 114, 115, 116, 117, 118, 119, 120, 121, 122, 123, 124, 125, 126, 127, 128, 129, 130, 131, 132, 133, 134, 135, 136, 137, 138, 139, 140, 141, 142, 143, 144, 145, 146, 147, 148, 149, 150, 151, 152, 153, 154, 155, 156, 157, 158, 159, 160, 161, 162, 163, 164, 165, 166, 167, 168, 169, 170, 175, 176, 177, 178, 179, 189, 190, 191, 224, 225, 226, 227, 228, 229, 230, 231, 232, 233, 251, 252, 268, 292}];
costs = [316350, 228600, 251480, 713196, 307190, 267120, 91800, 734990, 113400, 880200, 305790, 198702, 793800, 439434, 76340, 688700, 55800, 298800, 146840, 144550, 120600, 271770, 246770, 367200, 67990, 99000, 272340, 274510, 928800, 727200];
clouds = [{}, {67, 68, 166, 167, 72, 73, 74, 235, 265, 113, 82, 56, 90, 59}, {}, {}, {260, 261, 6, 263, 262, 9, 10, 267, 13, 14, 23, 25, 28, 157, 158, 160, 164, 292, 173, 50, 52, 180, 56, 57, 58, 59, 184, 186, 189, 64, 67, 68, 70, 71, 72, 77, 78, 83, 85, 86, 87, 88, 89, 90, 93, 94, 232, 233, 110, 111, 113, 117}, {}, {197, 201, 139, 140, 203}, {}, {}, {}, {}, {}, {272, 210, 275, 211}, {}, {296, 245, 246, 285, 287}, {271, 208, 209, 207, 211, 212, 213, 214, 215, 216, 272, 273, 274, 275}, {272}, {261, 268, 163, 164, 166, 167, 168, 55, 56, 57, 58, 75, 76, 77, 80, 81, 83, 84, 85, 86, 87, 88, 89, 90, 91, 233, 106, 235, 236, 237}, {130, 131, 132, 134, 135, 136, 137, 138, 140, 141, 143, 144, 145, 146, 147, 278, 195, 197, 198, 199, 201, 202, 203, 204, 205, 206, 223, 238, 239, 240, 241, 242, 243, 244, 245, 246, 247, 248, 253}, {275, 276, 213, 214, 215, 216, 217, 219}, {195, 196, 197, 134, 135, 198, 199, 138, 139, 200, 141, 142, 143, 201, 202, 203, 205, 223}, {}, {}, {96, 97, 261, 295, 103, 297, 82, 182, 157, 285}, {}, {198}, {269, 162, 163, 168, 55, 58, 190, 75, 82, 84, 85, 87, 91, 93, 97, 98, 103, 105, 233, 109, 112}, {256, 257, 132, 134, 135, 136, 137, 138, 139, 140, 141, 142, 143, 144, 145, 147, 148, 150, 151, 278, 279, 289, 290, 291, 195, 196, 197, 198, 199, 200, 201, 202, 203, 204, 205, 222, 223, 224, 226, 227, 228, 229, 230, 238, 240, 241, 242, 243, 244, 245, 246, 247, 248, 252, 253, 254, 255}, {256, 267, 142, 144, 145, 146, 147, 278, 151, 155, 284, 156, 161, 162, 289, 290, 298, 44, 193, 203, 80, 81, 88, 94, 100, 238, 246}, {9, 10, 11, 12, 13, 14, 15, 16, 17, 18, 19, 20, 21, 22, 23, 24, 25, 26, 27, 28, 29, 30, 31, 32, 33, 34, 35, 36, 37, 38, 39, 40, 68, 69, 70, 71, 72, 73, 74, 75, 76, 77, 78, 79, 80, 81, 82, 83, 84, 85, 92, 93, 94, 95, 96, 97, 98, 99, 114, 115, 116, 117, 118, 119, 121, 122, 123, 124, 125, 126, 127, 128, 129, 130, 131, 132, 133, 134, 135, 136, 137, 138, 139, 140, 141, 142, 143, 144, 145, 146, 147, 148, 149, 150, 151, 152, 153, 154, 155, 156, 157, 158, 159, 160, 161, 162, 163, 164, 165, 166, 167, 168, 169, 170, 175, 176, 177, 178, 179, 189, 190, 191, 224, 225, 226, 227, 228, 229, 230, 231, 232, 233, 251, 252, 268, 292}];
areas = [321, 181, 1537, 936, 663, 1873, 359, 502, 1994, 39819, 2856, 49, 1995, 712, 12, 497, 276, 198, 0, 415, 17, 5406, 430, 9601, 532, 153, 9493, 1687, 483, 465, 250, 9835, 5957, 836, 11409, 32674, 1619, 446, 463, 6723, 445, 734, 3918, 370, 957, 211, 258, 989, 16891, 1239, 15828, 11585, 4582, 1379, 452, 1538, 291, 5823, 1736, 121, 32, 1846, 17437, 5647, 6216, 17798, 47788, 569, 92, 354, 50, 2373, 198, 50, 1, 5288, 7, 887, 2318, 543, 589, 1880, 2568, 562, 1195, 1718, 3465, 24388, 1717, 554, 30, 1584, 38, 55, 1, 405, 8, 534, 8, 651, 17, 8564, 191, 299, 50, 417, 43, 7, 6, 2, 115, 5, 67, 4, 599, 27, 29, 6226, 43, 54, 113, 387, 222, 472, 111, 75, 481, 2143, 432, 163, 1834, 10629, 961, 17464, 2188, 296, 27914, 6679, 3742, 1406, 467, 8725, 1206, 176, 577, 95, 248, 1088, 237, 3529, 102, 83, 1852, 954, 3401, 306, 1765, 37, 3, 9773, 24454, 317, 386, 166298, 23224, 9051, 30620, 2751, 37378, 3165, 33682, 2676, 1274, 294, 6112, 509, 403, 12157, 231, 13054, 8108, 3162, 4644, 201, 21789, 3029, 11982, 1747, 7756, 15711, 141, 132, 722, 361, 273, 29, 17, 3, 19, 33, 18, 917, 7097, 5857, 46266, 10303, 282, 134055, 1277, 1265, 453, 984, 96, 725, 179, 154, 1222, 104247, 9149, 4201, 626, 37142, 7552, 619, 18348, 859, 7674, 2393, 565, 120558, 52414, 3570, 1015, 6055, 1749, 1326, 6751, 14183, 118, 1617, 1892, 172, 1665, 358, 556, 65344, 23, 336, 202, 126, 6804, 32327, 25659, 11905, 550044, 50632, 5472, 46854, 2121, 25624, 1989, 2824, 290, 10846, 3177, 19155, 9649, 14328, 2800, 331, 116, 1398, 14346, 2704, 1754, 21109, 5211, 950, 135692, 1072, 9796, 76, 20, 325, 294, 1111, 23667, 2208, 2990, 1383, 421, 55209, 2385, 913, 10160, 35872, 11887, 4067];
max_cloud_area = 841840223;
resolution = [50, 30, 50, 30, 50, 50, 30, 50, 30, 30, 50, 32, 30, 35, 50, 50, 30, 30, 50, 50, 30, 50, 50, 30, 50, 30, 50, 50, 30, 30];
incidence_angle = [290, 295, 142, 97, 262, 192, 150, 120, 348, 372, 260, 190, 331, 269, 100, 166, 123, 151, 247, 169, 293, 177, 143, 34, 90, 126, 195, 296, 124, 157];
